38
1 0 8
2 1 5
3 0 10
3 1 3
4 0 2
4 1 6
4 3 1
5 4 2
6 1 6
6 2 4
6 4 10
7 2 1
7 4 10
7 5 3
8 1 6
9 0 10
9 1 4
9 2 9
9 5 9
9 7 6
10 0 6
10 1 1
10 5 10
10 7 1
10 8 10
10 9 2
11 0 10
11 1 8
11 3 5
11 4 7
11 5 3
11 8 10
11 10 10
12 1 7
12 2 2
12 4 5
12 6 5
12 8 10
12 9 4
13 2 8
13 3 1
13 7 10
13 9 7
14 1 6
14 3 7
14 7 6
14 9 1
14 10 7
14 12 9
15 3 9
15 4 3
15 5 1
15 6 6
15 7 7
15 8 1
15 10 7
15 12 7
16 5 4
16 8 8
16 10 4
16 11 9
16 12 5
16 13 9
16 14 5
16 15 5
17 2 3
17 5 6
17 6 9
17 8 10
17 9 2
17 11 5
17 12 10
17 16 2
18 0 3
18 1 8
18 4 3
18 6 2
18 7 5
18 8 5
18 10 2
18 11 5
18 12 5
18 13 6
18 15 6
18 16 4
19 0 6
19 1 6
19 3 8
19 4 4
19 7 3
19 8 6
19 9 4
19 11 3
19 13 10
19 14 7
19 16 5
19 18 5
20 0 5
20 1 3
20 3 5
20 4 7
20 7 5
20 8 7
20 10 6
20 11 9
20 13 2
20 14 4
20 16 9
20 18 4
20 19 9
21 0 7
21 5 10
21 7 3
21 9 6
21 10 8
21 11 5
21 15 2
21 18 5
22 0 4
22 2 9
22 3 2
22 4 6
22 8 9
22 10 6
22 12 8
22 14 8
22 15 1
22 16 8
22 18 9
22 20 5
23 0 9
23 3 2
23 6 4
23 9 2
23 10 4
23 11 9
23 13 9
23 16 4
23 19 3
23 20 6
23 21 6
24 0 10
24 1 9
24 2 10
24 3 10
24 4 5
24 7 8
24 8 1
24 13 3
24 14 4
24 15 9
24 17 5
24 18 4
24 19 1
25 0 6
25 1 3
25 2 4
25 9 5
25 10 10
25 11 3
25 12 8
25 13 10
25 14 6
25 15 5
25 16 8
25 17 8
25 19 7
25 23 9
26 1 8
26 6 8
26 9 3
26 10 4
26 12 3
26 18 5
26 19 4
26 20 10
26 21 3
26 22 5
26 23 8
26 25 4
27 0 2
27 3 1
27 4 3
27 5 4
27 6 7
27 8 5
27 9 7
27 10 9
27 11 2
27 12 1
27 14 2
27 16 5
27 20 5
27 21 5
27 23 3
27 24 6
27 25 10
28 1 5
28 3 3
28 5 9
28 7 8
28 12 1
28 15 6
28 21 4
28 24 5
28 25 4
28 26 6
28 27 9
29 0 2
29 1 1
29 2 7
29 5 8
29 6 6
29 7 7
29 8 1
29 11 4
29 12 2
29 15 7
29 17 6
29 20 2
29 24 8
29 25 10
29 27 5
30 1 6
30 3 2
30 4 7
30 5 8
30 8 2
30 10 1
30 12 6
30 14 3
30 17 1
30 18 6
30 21 1
30 22 6
30 24 2
30 25 1
30 28 2
30 29 10
31 0 10
31 4 1
31 5 9
31 6 6
31 7 8
31 8 2
31 10 7
31 11 1
31 12 3
31 13 8
31 14 7
31 17 9
31 18 1
31 19 1
31 25 3
31 26 5
31 28 2
31 29 1
31 30 1
32 3 3
32 4 9
32 6 8
32 7 8
32 8 5
32 9 4
32 10 10
32 11 3
32 12 7
32 13 5
32 15 9
32 16 6
32 19 8
32 20 1
32 21 10
32 22 5
32 23 6
32 26 4
32 29 1
32 30 7
33 1 2
33 2 1
33 3 9
33 5 3
33 6 7
33 12 2
33 13 4
33 14 4
33 19 6
33 21 6
33 22 8
33 24 9
33 27 4
33 29 1
34 1 10
34 3 10
34 6 7
34 7 6
34 11 5
34 13 8
34 14 1
34 16 3
34 17 8
34 18 4
34 19 5
34 20 6
34 21 10
34 22 9
34 23 10
34 29 7
35 4 5
35 5 4
35 6 8
35 7 2
35 8 7
35 10 4
35 11 2
35 13 6
35 16 5
35 19 4
35 24 6
35 25 4
35 26 10
35 29 1
35 30 1
35 31 1
36 3 9
36 5 10
36 6 3
36 12 7
36 15 8
36 23 6
36 26 7
36 29 4
36 31 3
36 33 10
36 35 10
37 0 10
37 2 10
37 5 4
37 7 2
37 8 2
37 9 1
37 10 2
37 12 7
37 13 4
37 15 6
37 21 9
37 24 3
37 25 7
37 29 3
37 30 3
37 33 10
37 36 2
